/* Objective function */
max: ;

/* Constraints */
R1: +x12 <= 0;
R2: +x4 <= 0;
R3: +x5 <= 0;
R4: +x3 <= 0;
+x1 +x7 <= 0;
R6: +x3 <= 0;
R7: +x6 <= 0;
R8: +x6 <= 0;
R9: +x3 <= 0;
R10: +x1 <= 0;
0 x1 <= 0;
R12: +x2 <= 0;
R13: +x3 <= 0;
R14: +x2 <= 0;
R15: +x2 <= 0;
R16: +x2 <= 0;
R17: +x2 <= 0;
R18: +x5 <= 0;
+x1 +x7 <= 0;
R20: +x3 <= 0;
R21: +x4 <= 0;
R22: +x8 <= 0;
R23: +x8 <= 1;
R24: +x9 <= 0;
R25: +x4 <= 0;
R26: +x9 <= 0;
R27: +x4 <= 0;
R28: +x1 <= 0;
R29: +x10 <= 0;
R30: +x10 <= 0;
R31: +x1 <= 0;
R32: +x5 <= 0;
R33: +x1 <= 0;
R34: +x1 <= 0;
R35: +x1 <= 0;
R36: +x11 <= 0;
R37: +x11 <= 0;
R38: +x5 <= 0;
R39: +x12 >= 0;
R40: +x11 >= 0;
R41: +x5 >= 0;
R42: +x4 >= 0;
R43: +x5 >= 0;
R44: +x7 >= 0;
R45: +x7 >= 0;
R46: +x5 >= 0;
R47: +x1 >= 0;
+x1 +x10 >= 0;
R49: +x11 >= 0;
R50: +x5 >= 0;
R51: +x6 >= 0;
R52: +x6 >= 0;
R53: +x11 >= 0;
R54: +x6 >= 0;
R55: +x11 >= 0;
R56: +x4 >= 0;
R57: +x5 >= 0;
R58: +x4 >= 0;
R59: +x8 >= 0;
R60: +x4 >= 0;
0 x1 >= 1;
+x8 +x9 >= 0;
0 x1 >= 1;
R64: +x4 >= 0;
R65: +x1 >= 0;
R66: +x3 >= 0;
R67: +x3 >= 0;
R68: +x1 >= 0;
R69: +x5 >= 0;
R70: +x1 >= 0;
R71: +x1 >= 0;
R72: +x1 >= 0;
R73: +x2 >= 0;
R74: +x2 >= 0;
R75: +x5 >= 0;
R76: +x1 >= 0;
R77: +x2 >= 0;
R78: +x3 >= 0;
R79: +x4 >= 0;
R80: +x5 >= 0;
R81: +x6 >= 0;
R82: +x7 >= 0;
R83: +x8 >= 0;
R84: +x9 >= 0;
R85: +x10 >= 0;
R86: +x11 >= 0;
R87: +x12 >= 0;
